
(set-logic HORN)
(define-fun Z_1018 () Int 0)
(define-fun S_269 ((x Int)) Int (+ x 1))
(declare-fun diseqInt (Int Int) Bool)
(declare-fun unS_357 (Int Int) Bool)
(declare-fun isZ_251 (Int) Bool)
(declare-fun isS_251 (Int) Bool)
(assert (forall ((x_26715 Int))
	(unS_357 x_26715 (S_269 x_26715))))
(assert (isZ_251 Z_1018))
(assert (forall ((x_26717 Int))
	(isS_251 (S_269 x_26717))))
(assert (forall ((x_26718 Int))
	(diseqInt Z_1018 (S_269 x_26718))))
(assert (forall ((x_26719 Int))
	(diseqInt (S_269 x_26719) Z_1018)))
(assert (forall ((x_26720 Int) (x_26721 Int))
	(=> (diseqInt x_26720 x_26721) (diseqInt (S_269 x_26720) (S_269 x_26721)))))
(declare-fun add_189 (Int Int Int) Bool)
(declare-fun minus_183 (Int Int Int) Bool)
(declare-fun le_178 (Int Int) Bool)
(declare-fun ge_178 (Int Int) Bool)
(declare-fun lt_187 (Int Int) Bool)
(declare-fun gt_180 (Int Int) Bool)
(declare-fun mult_178 (Int Int Int) Bool)
(declare-fun div_178 (Int Int Int) Bool)
(declare-fun mod_178 (Int Int Int) Bool)
(assert (forall ((y_1064 Int))
	(add_189 y_1064 Z_1018 y_1064)))
(assert (forall ((x_26699 Int) (y_1064 Int) (r_212 Int))
	(=> (add_189 r_212 x_26699 y_1064) (add_189 (S_269 r_212) (S_269 x_26699) y_1064))))
(assert (forall ((y_1064 Int))
	(minus_183 Z_1018 Z_1018 y_1064)))
(assert (forall ((x_26699 Int) (y_1064 Int) (r_212 Int))
	(=> (minus_183 r_212 x_26699 y_1064) (minus_183 (S_269 r_212) (S_269 x_26699) y_1064))))
(assert (forall ((y_1064 Int))
	(le_178 Z_1018 y_1064)))
(assert (forall ((x_26699 Int) (y_1064 Int))
	(=> (le_178 x_26699 y_1064) (le_178 (S_269 x_26699) (S_269 y_1064)))))
(assert (forall ((y_1064 Int))
	(ge_178 y_1064 Z_1018)))
(assert (forall ((x_26699 Int) (y_1064 Int))
	(=> (ge_178 x_26699 y_1064) (ge_178 (S_269 x_26699) (S_269 y_1064)))))
(assert (forall ((y_1064 Int))
	(lt_187 Z_1018 (S_269 y_1064))))
(assert (forall ((x_26699 Int) (y_1064 Int))
	(=> (lt_187 x_26699 y_1064) (lt_187 (S_269 x_26699) (S_269 y_1064)))))
(assert (forall ((y_1064 Int))
	(gt_180 (S_269 y_1064) Z_1018)))
(assert (forall ((x_26699 Int) (y_1064 Int))
	(=> (gt_180 x_26699 y_1064) (gt_180 (S_269 x_26699) (S_269 y_1064)))))
(assert (forall ((y_1064 Int))
	(mult_178 Z_1018 Z_1018 y_1064)))
(assert (forall ((x_26699 Int) (y_1064 Int) (r_212 Int) (z_1019 Int))
	(=> (and (mult_178 r_212 x_26699 y_1064) (add_189 z_1019 r_212 y_1064)) (mult_178 z_1019 (S_269 x_26699) y_1064))))
(assert (forall ((x_26699 Int) (y_1064 Int))
	(=> (lt_187 x_26699 y_1064) (div_178 Z_1018 x_26699 y_1064))))
(assert (forall ((x_26699 Int) (y_1064 Int) (r_212 Int) (z_1019 Int))
	(=> (and (ge_178 x_26699 y_1064) (minus_183 z_1019 x_26699 y_1064) (div_178 r_212 z_1019 y_1064)) (div_178 (S_269 r_212) x_26699 y_1064))))
(assert (forall ((x_26699 Int) (y_1064 Int))
	(=> (lt_187 x_26699 y_1064) (mod_178 x_26699 x_26699 y_1064))))
(assert (forall ((x_26699 Int) (y_1064 Int) (r_212 Int) (z_1019 Int))
	(=> (and (ge_178 x_26699 y_1064) (minus_183 z_1019 x_26699 y_1064) (mod_178 r_212 z_1019 y_1064)) (mod_178 r_212 x_26699 y_1064))))
(declare-datatypes ((list_126 0)) (((nil_140) (cons_126 (head_252 Int) (tail_252 list_126)))))
(declare-fun diseqlist_126 (list_126 list_126) Bool)
(declare-fun head_253 (Int list_126) Bool)
(declare-fun tail_253 (list_126 list_126) Bool)
(declare-fun isnil_140 (list_126) Bool)
(declare-fun iscons_126 (list_126) Bool)
(assert (forall ((x_26701 Int) (x_26702 list_126))
	(head_253 x_26701 (cons_126 x_26701 x_26702))))
(assert (forall ((x_26701 Int) (x_26702 list_126))
	(tail_253 x_26702 (cons_126 x_26701 x_26702))))
(assert (isnil_140 nil_140))
(assert (forall ((x_26704 Int) (x_26705 list_126))
	(iscons_126 (cons_126 x_26704 x_26705))))
(assert (forall ((x_26706 Int) (x_26707 list_126))
	(diseqlist_126 nil_140 (cons_126 x_26706 x_26707))))
(assert (forall ((x_26708 Int) (x_26709 list_126))
	(diseqlist_126 (cons_126 x_26708 x_26709) nil_140)))
(assert (forall ((x_26710 Int) (x_26711 list_126) (x_26712 Int) (x_26713 list_126))
	(=> (diseqInt x_26710 x_26712) (diseqlist_126 (cons_126 x_26710 x_26711) (cons_126 x_26712 x_26713)))))
(assert (forall ((x_26710 Int) (x_26711 list_126) (x_26712 Int) (x_26713 list_126))
	(=> (diseqlist_126 x_26711 x_26713) (diseqlist_126 (cons_126 x_26710 x_26711) (cons_126 x_26712 x_26713)))))
(declare-fun interleave_1 (list_126 list_126 list_126) Bool)
(assert (forall ((x_26688 list_126) (z_1017 Int) (xs_338 list_126) (y_1061 list_126))
	(=> (interleave_1 x_26688 y_1061 xs_338) (interleave_1 (cons_126 z_1017 x_26688) (cons_126 z_1017 xs_338) y_1061))))
(assert (forall ((x_26689 list_126))
	(interleave_1 x_26689 nil_140 x_26689)))
(declare-fun evens_6 (list_126 list_126) Bool)
(declare-fun odds_6 (list_126 list_126) Bool)
(assert (forall ((x_26691 list_126) (y_1062 Int) (xs_339 list_126))
	(=> (odds_6 x_26691 xs_339) (evens_6 (cons_126 y_1062 x_26691) (cons_126 y_1062 xs_339)))))
(assert (evens_6 nil_140 nil_140))
(assert (forall ((x_26693 list_126) (y_1063 Int) (xs_340 list_126))
	(=> (evens_6 x_26693 xs_340) (odds_6 x_26693 (cons_126 y_1063 xs_340)))))
(assert (odds_6 nil_140 nil_140))
(assert (forall ((x_26696 list_126) (x_26697 list_126) (x_26698 list_126) (xs_341 list_126))
	(=> (and true (diseqlist_126 x_26698 xs_341) (evens_6 x_26696 xs_341) (odds_6 x_26697 xs_341) (interleave_1 x_26698 x_26696 x_26697)) false)))
(check-sat)
